
Gurobi 10.0.2 (mac64[x86], gurobi_cl) logging started Wed Oct 25 12:14:56 2023

Set parameter Username
Set parameter LogFile to value "gurobi.log"
Academic license - for non-commercial use only - expires 2024-08-09
Using license file /Users/phivri/gurobi.lic

Gurobi 10.0.2 (mac64[x86], gurobi_cl) logging started Wed Oct 25 12:15:15 2023

Set parameter Username
Set parameter LogFile to value "gurobi.log"
Academic license - for non-commercial use only - expires 2024-08-09
Using license file /Users/phivri/gurobi.lic

Gurobi 10.0.2 (mac64[x86], gurobi_cl) logging started Wed Oct 25 12:16:39 2023

Set parameter Username
Set parameter LogFile to value "gurobi.log"
Academic license - for non-commercial use only - expires 2024-08-09
Using license file /Users/phivri/gurobi.lic

Gurobi 10.0.2 (mac64[x86], gurobi_cl) logging started Wed Oct 25 12:26:28 2023

Set parameter Username
Set parameter LogFile to value "gurobi.log"
Academic license - for non-commercial use only - expires 2024-08-09
Using license file /Users/phivri/gurobi.lic

Gurobi 10.0.2 (mac64[x86], gurobi_cl) logging started Wed Oct 25 12:35:21 2023

Set parameter Username
Set parameter LogFile to value "gurobi.log"
Academic license - for non-commercial use only - expires 2024-08-09
Using license file /Users/phivri/gurobi.lic

Gurobi 10.0.2 (mac64[x86], gurobi_cl) logging started Tue May 28 13:07:40 2024

Set parameter Username
Set parameter LogFile to value "gurobi.log"
Academic license - for non-commercial use only - expires 2024-08-09
Using license file /Users/phivri/gurobi.lic

Gurobi 10.0.2 (mac64[x86], gurobi_cl) logging started Tue May 28 13:08:05 2024

Set parameter Username
Set parameter LogFile to value "gurobi.log"
Academic license - for non-commercial use only - expires 2024-08-09
Using license file /Users/phivri/gurobi.lic

Gurobi 10.0.2 (mac64[x86], gurobi_cl) logging started Tue May 28 13:09:41 2024

Set parameter Username
Set parameter LogFile to value "gurobi.log"
Academic license - for non-commercial use only - expires 2024-08-09
Using license file /Users/phivri/gurobi.lic

Gurobi 10.0.2 (mac64[x86], gurobi_cl) logging started Tue May 28 13:11:00 2024

Set parameter Username
Set parameter LogFile to value "gurobi.log"
Academic license - for non-commercial use only - expires 2024-08-09
Using license file /Users/phivri/gurobi.lic

Gurobi 10.0.2 (mac64[x86], gurobi_cl) logging started Tue May 28 13:29:47 2024

Set parameter Username
Set parameter LogFile to value "gurobi.log"
Academic license - for non-commercial use only - expires 2024-08-09
Using license file /Users/phivri/gurobi.lic

Gurobi 10.0.2 (mac64[x86], gurobi_cl) logging started Tue May 28 13:31:15 2024

Set parameter Username
Set parameter LogFile to value "gurobi.log"
Academic license - for non-commercial use only - expires 2024-08-09
Using license file /Users/phivri/gurobi.lic

Gurobi 10.0.2 (mac64[x86], gurobi_cl) logging started Tue May 28 13:31:39 2024

Set parameter Username
Set parameter LogFile to value "gurobi.log"
Academic license - for non-commercial use only - expires 2024-08-09
Using license file /Users/phivri/gurobi.lic

Gurobi 10.0.2 (mac64[x86], gurobi_cl) logging started Tue May 28 14:04:46 2024

Set parameter Username
Set parameter LogFile to value "gurobi.log"
Academic license - for non-commercial use only - expires 2024-08-09
Using license file /Users/phivri/gurobi.lic

Gurobi 10.0.2 (mac64[x86], gurobi_cl) logging started Tue May 28 14:05:26 2024

Set parameter Username
Set parameter LogFile to value "gurobi.log"
Academic license - for non-commercial use only - expires 2024-08-09
Using license file /Users/phivri/gurobi.lic

Gurobi 10.0.2 (mac64[x86], gurobi_cl) logging started Tue May 28 14:11:50 2024

Set parameter Username
Set parameter LogFile to value "gurobi.log"
Academic license - for non-commercial use only - expires 2024-08-09
Using license file /Users/phivri/gurobi.lic

Gurobi 10.0.2 (mac64[x86], gurobi_cl) logging started Tue May 28 14:12:11 2024

Set parameter Username
Set parameter LogFile to value "gurobi.log"
Academic license - for non-commercial use only - expires 2024-08-09
Using license file /Users/phivri/gurobi.lic

Gurobi 10.0.2 (mac64[x86], gurobi_cl) logging started Tue May 28 14:13:22 2024

Set parameter Username
Set parameter LogFile to value "gurobi.log"
Academic license - for non-commercial use only - expires 2024-08-09
Using license file /Users/phivri/gurobi.lic

Gurobi 10.0.2 (mac64[x86], gurobi_cl) logging started Tue May 28 14:15:31 2024

Set parameter Username
Set parameter LogFile to value "gurobi.log"
Academic license - for non-commercial use only - expires 2024-08-09
Using license file /Users/phivri/gurobi.lic

Gurobi 10.0.2 (mac64[x86], gurobi_cl) logging started Tue May 28 14:22:12 2024

Set parameter Username
Set parameter LogFile to value "gurobi.log"
Academic license - for non-commercial use only - expires 2024-08-09
Using license file /Users/phivri/gurobi.lic

Gurobi 10.0.2 (mac64[x86], gurobi_cl) logging started Tue May 28 14:25:51 2024

Set parameter Username
Set parameter LogFile to value "gurobi.log"
Academic license - for non-commercial use only - expires 2024-08-09
Using license file /Users/phivri/gurobi.lic
